c 
c G(n,p) graph
c graph gen seed     : 47633
c number of vertices : 80
c max number of edges: 3160
c edge probability   : 0.400000
c data structure     : sparse
c
c           Graph Stats
c number of vertices  : 80
c nonisolated vertices: 80
c number of edges     : 1275
c edge density        : 0.403481
c max degree          : 42
c avg degree          : 31.88
c min degree          : 22
p col 80 1275
e 1 79
e 1 76
e 1 74
e 1 73
e 1 65
e 1 62
e 1 60
e 1 58
e 1 57
e 1 55
e 1 54
e 1 53
e 1 49
e 1 45
e 1 43
e 1 42
e 1 40
e 1 34
e 1 31
e 1 28
e 1 27
e 1 25
e 1 24
e 1 21
e 1 18
e 1 17
e 1 16
e 1 15
e 1 14
e 1 12
e 1 10
e 1 9
e 1 8
e 1 6
e 1 5
e 1 3
e 1 2
e 2 78
e 2 77
e 2 76
e 2 75
e 2 73
e 2 72
e 2 71
e 2 70
e 2 67
e 2 62
e 2 58
e 2 57
e 2 54
e 2 53
e 2 42
e 2 40
e 2 36
e 2 27
e 2 25
e 2 24
e 2 23
e 2 22
e 2 20
e 2 19
e 2 18
e 2 16
e 2 15
e 2 14
e 2 11
e 2 7
e 2 6
e 2 4
e 3 80
e 3 79
e 3 75
e 3 73
e 3 71
e 3 70
e 3 67
e 3 61
e 3 57
e 3 56
e 3 47
e 3 44
e 3 41
e 3 33
e 3 32
e 3 29
e 3 24
e 3 23
e 3 22
e 3 20
e 3 17
e 3 16
e 3 15
e 3 14
e 3 8
e 3 7
e 3 6
e 3 5
e 4 78
e 4 77
e 4 76
e 4 75
e 4 74
e 4 73
e 4 71
e 4 70
e 4 69
e 4 67
e 4 65
e 4 64
e 4 63
e 4 62
e 4 60
e 4 55
e 4 53
e 4 50
e 4 49
e 4 47
e 4 45
e 4 38
e 4 32
e 4 31
e 4 29
e 4 28
e 4 25
e 4 24
e 4 23
e 4 21
e 4 18
e 4 17
e 4 12
e 4 10
e 4 9
e 4 8
e 4 6
e 5 80
e 5 78
e 5 77
e 5 76
e 5 70
e 5 69
e 5 67
e 5 63
e 5 62
e 5 56
e 5 55
e 5 54
e 5 52
e 5 51
e 5 48
e 5 47
e 5 43
e 5 41
e 5 38
e 5 37
e 5 35
e 5 34
e 5 33
e 5 32
e 5 23
e 5 20
e 5 17
e 5 14
e 5 9
e 5 7
e 6 73
e 6 69
e 6 68
e 6 66
e 6 65
e 6 62
e 6 61
e 6 58
e 6 56
e 6 54
e 6 53
e 6 52
e 6 49
e 6 48
e 6 47
e 6 44
e 6 42
e 6 38
e 6 36
e 6 34
e 6 33
e 6 31
e 6 29
e 6 26
e 6 25
e 6 23
e 6 22
e 6 20
e 6 18
e 6 17
e 6 15
e 6 12
e 6 10
e 6 9
e 6 8
e 7 80
e 7 79
e 7 78
e 7 77
e 7 74
e 7 71
e 7 70
e 7 67
e 7 65
e 7 61
e 7 56
e 7 54
e 7 53
e 7 51
e 7 50
e 7 48
e 7 47
e 7 46
e 7 45
e 7 44
e 7 36
e 7 35
e 7 34
e 7 32
e 7 31
e 7 29
e 7 25
e 7 19
e 7 18
e 8 80
e 8 79
e 8 76
e 8 75
e 8 74
e 8 67
e 8 66
e 8 64
e 8 61
e 8 59
e 8 56
e 8 54
e 8 53
e 8 48
e 8 44
e 8 41
e 8 40
e 8 39
e 8 35
e 8 33
e 8 32
e 8 31
e 8 30
e 8 29
e 8 22
e 8 21
e 8 20
e 8 18
e 8 16
e 8 14
e 8 12
e 8 9
e 9 80
e 9 79
e 9 77
e 9 74
e 9 73
e 9 69
e 9 58
e 9 56
e 9 55
e 9 51
e 9 48
e 9 47
e 9 46
e 9 44
e 9 41
e 9 33
e 9 31
e 9 30
e 9 29
e 9 26
e 9 23
e 9 22
e 9 20
e 9 18
e 9 17
e 9 16
e 9 11
e 9 10
e 10 77
e 10 76
e 10 72
e 10 67
e 10 64
e 10 62
e 10 60
e 10 58
e 10 57
e 10 52
e 10 51
e 10 50
e 10 49
e 10 48
e 10 46
e 10 44
e 10 42
e 10 41
e 10 40
e 10 33
e 10 32
e 10 30
e 10 28
e 10 27
e 10 26
e 10 25
e 10 24
e 10 23
e 10 22
e 10 20
e 10 18
e 10 15
e 10 14
e 10 12
e 11 79
e 11 77
e 11 75
e 11 73
e 11 71
e 11 69
e 11 66
e 11 64
e 11 60
e 11 58
e 11 56
e 11 52
e 11 51
e 11 50
e 11 49
e 11 44
e 11 43
e 11 41
e 11 40
e 11 39
e 11 37
e 11 36
e 11 35
e 11 34
e 11 32
e 11 31
e 11 30
e 11 23
e 11 22
e 11 17
e 12 78
e 12 76
e 12 75
e 12 74
e 12 72
e 12 69
e 12 67
e 12 65
e 12 62
e 12 61
e 12 59
e 12 56
e 12 46
e 12 45
e 12 43
e 12 40
e 12 39
e 12 38
e 12 33
e 12 29
e 12 28
e 12 25
e 12 21
e 12 17
e 12 15
e 12 13
e 13 76
e 13 72
e 13 70
e 13 68
e 13 66
e 13 57
e 13 55
e 13 54
e 13 43
e 13 42
e 13 41
e 13 38
e 13 34
e 13 32
e 13 31
e 13 30
e 13 29
e 13 27
e 13 25
e 13 19
e 13 16
e 14 79
e 14 78
e 14 77
e 14 72
e 14 69
e 14 66
e 14 65
e 14 64
e 14 63
e 14 59
e 14 58
e 14 57
e 14 56
e 14 55
e 14 53
e 14 51
e 14 48
e 14 47
e 14 44
e 14 43
e 14 41
e 14 40
e 14 38
e 14 28
e 14 27
e 14 25
e 14 24
e 14 15
e 15 78
e 15 76
e 15 75
e 15 69
e 15 67
e 15 65
e 15 64
e 15 63
e 15 57
e 15 56
e 15 55
e 15 54
e 15 53
e 15 51
e 15 49
e 15 47
e 15 43
e 15 42
e 15 41
e 15 39
e 15 37
e 15 34
e 15 30
e 15 22
e 15 21
e 16 79
e 16 71
e 16 68
e 16 59
e 16 57
e 16 55
e 16 54
e 16 53
e 16 50
e 16 49
e 16 48
e 16 45
e 16 40
e 16 39
e 16 37
e 16 32
e 16 28
e 16 27
e 16 25
e 16 24
e 16 23
e 16 17
e 17 80
e 17 77
e 17 72
e 17 71
e 17 69
e 17 67
e 17 66
e 17 64
e 17 63
e 17 61
e 17 60
e 17 59
e 17 58
e 17 57
e 17 56
e 17 51
e 17 50
e 17 49
e 17 48
e 17 40
e 17 39
e 17 36
e 17 29
e 17 26
e 17 24
e 17 23
e 17 18
e 18 80
e 18 79
e 18 78
e 18 76
e 18 70
e 18 69
e 18 65
e 18 64
e 18 62
e 18 61
e 18 60
e 18 57
e 18 56
e 18 55
e 18 53
e 18 52
e 18 51
e 18 49
e 18 48
e 18 42
e 18 39
e 18 37
e 18 32
e 18 30
e 18 29
e 18 28
e 18 25
e 18 24
e 18 23
e 18 22
e 18 20
e 19 75
e 19 73
e 19 72
e 19 69
e 19 67
e 19 65
e 19 64
e 19 60
e 19 59
e 19 56
e 19 53
e 19 50
e 19 48
e 19 45
e 19 43
e 19 41
e 19 38
e 19 35
e 19 33
e 19 32
e 19 30
e 19 27
e 19 26
e 19 25
e 20 80
e 20 79
e 20 78
e 20 77
e 20 74
e 20 73
e 20 70
e 20 67
e 20 66
e 20 64
e 20 63
e 20 60
e 20 55
e 20 51
e 20 50
e 20 48
e 20 47
e 20 46
e 20 45
e 20 44
e 20 42
e 20 40
e 20 39
e 20 36
e 20 35
e 20 29
e 20 28
e 20 24
e 20 23
e 21 79
e 21 78
e 21 75
e 21 74
e 21 69
e 21 68
e 21 65
e 21 61
e 21 59
e 21 57
e 21 55
e 21 53
e 21 49
e 21 45
e 21 43
e 21 41
e 21 38
e 21 36
e 21 35
e 21 34
e 21 28
e 21 27
e 21 25
e 21 23
e 21 22
e 22 80
e 22 79
e 22 78
e 22 77
e 22 67
e 22 60
e 22 58
e 22 54
e 22 52
e 22 48
e 22 47
e 22 46
e 22 42
e 22 40
e 22 39
e 22 38
e 22 37
e 22 35
e 22 29
e 22 27
e 22 23
e 23 80
e 23 77
e 23 76
e 23 75
e 23 74
e 23 70
e 23 69
e 23 68
e 23 65
e 23 62
e 23 58
e 23 57
e 23 56
e 23 55
e 23 50
e 23 48
e 23 46
e 23 43
e 23 42
e 23 40
e 23 39
e 23 36
e 23 34
e 23 33
e 23 32
e 23 30
e 23 28
e 23 24
e 24 79
e 24 74
e 24 71
e 24 70
e 24 64
e 24 63
e 24 61
e 24 57
e 24 56
e 24 55
e 24 53
e 24 51
e 24 50
e 24 46
e 24 45
e 24 44
e 24 39
e 24 37
e 24 34
e 24 33
e 24 28
e 25 80
e 25 79
e 25 78
e 25 76
e 25 75
e 25 73
e 25 71
e 25 70
e 25 67
e 25 65
e 25 61
e 25 59
e 25 58
e 25 54
e 25 52
e 25 51
e 25 45
e 25 38
e 25 36
e 25 34
e 25 29
e 25 28
e 26 80
e 26 73
e 26 72
e 26 67
e 26 65
e 26 60
e 26 56
e 26 54
e 26 49
e 26 48
e 26 42
e 26 40
e 26 38
e 26 37
e 26 35
e 26 32
e 26 29
e 26 27
e 27 80
e 27 79
e 27 78
e 27 75
e 27 69
e 27 66
e 27 62
e 27 61
e 27 59
e 27 57
e 27 56
e 27 51
e 27 50
e 27 48
e 27 44
e 27 43
e 27 42
e 27 36
e 27 29
e 27 28
e 28 80
e 28 79
e 28 77
e 28 75
e 28 70
e 28 69
e 28 68
e 28 66
e 28 65
e 28 63
e 28 61
e 28 60
e 28 59
e 28 58
e 28 54
e 28 51
e 28 42
e 28 41
e 28 39
e 28 36
e 28 35
e 28 34
e 28 32
e 29 80
e 29 79
e 29 78
e 29 77
e 29 76
e 29 75
e 29 73
e 29 71
e 29 65
e 29 64
e 29 62
e 29 59
e 29 58
e 29 56
e 29 53
e 29 51
e 29 45
e 29 44
e 29 37
e 29 35
e 30 68
e 30 66
e 30 65
e 30 59
e 30 57
e 30 54
e 30 53
e 30 51
e 30 50
e 30 47
e 30 42
e 30 41
e 30 36
e 30 32
e 30 31
e 31 79
e 31 78
e 31 77
e 31 76
e 31 74
e 31 72
e 31 67
e 31 66
e 31 63
e 31 62
e 31 58
e 31 56
e 31 51
e 31 49
e 31 45
e 31 41
e 31 40
e 31 39
e 31 37
e 31 36
e 31 32
e 32 78
e 32 75
e 32 74
e 32 72
e 32 70
e 32 63
e 32 59
e 32 58
e 32 56
e 32 52
e 32 46
e 32 45
e 32 43
e 32 42
e 32 41
e 32 36
e 32 35
e 33 77
e 33 75
e 33 74
e 33 73
e 33 71
e 33 70
e 33 69
e 33 68
e 33 65
e 33 56
e 33 54
e 33 53
e 33 51
e 33 49
e 33 48
e 33 46
e 33 44
e 33 40
e 33 39
e 33 37
e 33 36
e 33 35
e 34 78
e 34 75
e 34 72
e 34 71
e 34 69
e 34 68
e 34 67
e 34 66
e 34 61
e 34 60
e 34 58
e 34 57
e 34 55
e 34 52
e 34 42
e 34 39
e 34 38
e 35 78
e 35 76
e 35 71
e 35 65
e 35 61
e 35 57
e 35 56
e 35 55
e 35 53
e 35 52
e 35 47
e 35 46
e 35 45
e 36 80
e 36 78
e 36 74
e 36 70
e 36 67
e 36 64
e 36 60
e 36 57
e 36 56
e 36 53
e 36 49
e 36 48
e 36 47
e 36 46
e 36 42
e 36 41
e 36 38
e 37 79
e 37 77
e 37 69
e 37 68
e 37 65
e 37 64
e 37 63
e 37 62
e 37 61
e 37 57
e 37 53
e 37 52
e 37 51
e 37 47
e 37 46
e 37 45
e 37 43
e 37 42
e 37 40
e 37 39
e 38 80
e 38 76
e 38 74
e 38 68
e 38 65
e 38 62
e 38 61
e 38 60
e 38 59
e 38 53
e 38 48
e 38 45
e 38 44
e 38 42
e 39 79
e 39 71
e 39 70
e 39 65
e 39 63
e 39 62
e 39 60
e 39 59
e 39 58
e 39 48
e 39 40
e 40 80
e 40 79
e 40 76
e 40 68
e 40 65
e 40 63
e 40 59
e 40 58
e 40 54
e 40 52
e 40 51
e 40 50
e 40 49
e 40 48
e 40 46
e 40 45
e 40 44
e 41 78
e 41 77
e 41 76
e 41 73
e 41 71
e 41 70
e 41 64
e 41 58
e 41 54
e 41 53
e 41 49
e 41 46
e 41 44
e 42 79
e 42 76
e 42 75
e 42 73
e 42 71
e 42 68
e 42 67
e 42 65
e 42 64
e 42 62
e 42 60
e 42 52
e 42 50
e 42 49
e 42 46
e 42 45
e 43 80
e 43 76
e 43 75
e 43 74
e 43 73
e 43 68
e 43 67
e 43 61
e 43 59
e 43 55
e 43 47
e 43 46
e 43 45
e 44 79
e 44 78
e 44 77
e 44 74
e 44 68
e 44 66
e 44 61
e 44 60
e 44 59
e 44 58
e 44 57
e 44 53
e 44 52
e 44 49
e 44 48
e 45 76
e 45 75
e 45 74
e 45 73
e 45 71
e 45 68
e 45 66
e 45 61
e 45 60
e 45 58
e 45 56
e 45 55
e 45 54
e 45 53
e 45 52
e 45 51
e 45 47
e 46 80
e 46 73
e 46 66
e 46 63
e 46 62
e 46 60
e 46 58
e 46 57
e 46 51
e 46 50
e 46 49
e 46 47
e 47 80
e 47 78
e 47 76
e 47 74
e 47 71
e 47 66
e 47 64
e 47 62
e 47 59
e 47 51
e 47 48
e 48 77
e 48 76
e 48 75
e 48 71
e 48 70
e 48 68
e 48 63
e 48 61
e 48 60
e 48 58
e 48 57
e 48 56
e 48 55
e 48 53
e 48 52
e 48 50
e 48 49
e 49 79
e 49 77
e 49 74
e 49 70
e 49 69
e 49 68
e 49 63
e 49 55
e 49 54
e 49 53
e 49 51
e 50 80
e 50 79
e 50 78
e 50 77
e 50 76
e 50 75
e 50 73
e 50 72
e 50 70
e 50 65
e 50 64
e 50 63
e 50 60
e 50 55
e 50 53
e 51 80
e 51 77
e 51 76
e 51 75
e 51 74
e 51 73
e 51 68
e 51 67
e 51 66
e 51 64
e 51 63
e 51 61
e 51 56
e 52 79
e 52 74
e 52 71
e 52 70
e 52 69
e 52 67
e 52 66
e 52 63
e 52 62
e 52 61
e 52 60
e 52 57
e 52 54
e 53 74
e 53 72
e 53 69
e 53 65
e 53 63
e 53 62
e 53 61
e 53 55
e 54 80
e 54 77
e 54 76
e 54 70
e 54 68
e 54 66
e 54 64
e 54 63
e 54 62
e 54 59
e 54 58
e 54 57
e 54 56
e 55 76
e 55 75
e 55 74
e 55 67
e 55 63
e 55 62
e 55 61
e 55 60
e 55 58
e 56 78
e 56 77
e 56 74
e 56 69
e 56 68
e 56 66
e 56 63
e 56 62
e 56 59
e 56 58
e 56 57
e 57 77
e 57 67
e 57 66
e 57 65
e 57 61
e 58 74
e 58 73
e 58 71
e 58 70
e 58 63
e 59 80
e 59 79
e 59 76
e 59 73
e 59 69
e 59 68
e 59 66
e 59 64
e 59 62
e 60 80
e 60 77
e 60 76
e 60 69
e 60 66
e 60 64
e 60 62
e 60 61
e 61 80
e 61 79
e 61 78
e 61 77
e 61 74
e 61 70
e 61 64
e 61 63
e 62 80
e 62 76
e 62 71
e 62 67
e 62 64
e 62 63
e 63 80
e 63 78
e 63 76
e 63 73
e 63 72
e 63 66
e 63 64
e 64 75
e 64 72
e 64 67
e 64 66
e 65 78
e 65 77
e 65 76
e 65 73
e 65 71
e 65 70
e 65 69
e 65 67
e 66 79
e 66 70
e 66 68
e 66 67
e 67 79
e 67 77
e 67 74
e 67 70
e 67 69
e 67 68
e 68 80
e 68 73
e 68 71
e 68 69
e 69 79
e 69 76
e 69 75
e 69 72
e 70 79
e 70 78
e 70 75
e 70 71
e 71 79
e 71 77
e 72 80
e 72 79
e 72 78
e 72 77
e 72 75
e 72 73
e 73 80
e 73 77
e 73 74
e 74 77
e 75 80
e 75 78
e 75 77
e 76 80
e 76 79
e 76 77
e 77 79
